* ENCODING=ISO-8859-1
NAME          master_ILP.lp
ROWS
 N  obj1    
 G  w.0     
 G  w.1     
 G  w.2     
 G  r.0     
 G  r.1     
 G  r.2     
 G  r.3     
 G  r.4     
 G  r.5     
 G  r.6     
 G  r.7     
 E  t.0     
 E  t.1     
 E  t.2     
COLUMNS
    x.000     obj1                          1.8
    x.000     w.0                             1
    x.000     r.0                             1
    x.000     t.0                             1
    x.001     obj1                          1.5
    x.001     w.0                             1
    x.001     r.1                             1
    x.001     t.0                             1
    x.002     obj1                         2.16
    x.002     w.0                             1
    x.002     r.2                             1
    x.002     t.0                             1
    x.003     obj1                         1.74
    x.003     w.0                             1
    x.003     r.3                             1
    x.003     t.0                             1
    x.004     obj1                          0.9
    x.004     w.0                             1
    x.004     r.4                             1
    x.004     t.0                             1
    x.005     obj1                         0.48
    x.005     w.0                             1
    x.005     r.5                             1
    x.005     t.0                             1
    x.006     obj1                         0.96
    x.006     w.0                             1
    x.006     r.6                             1
    x.006     t.0                             1
    x.007     obj1                         1.14
    x.007     w.0                             1
    x.007     r.7                             1
    x.007     t.0                             1
    x.100     obj1                         1.32
    x.100     w.1                             1
    x.100     r.0                             1
    x.100     t.0                             1
    x.101     obj1                         1.32
    x.101     w.1                             1
    x.101     r.1                             1
    x.101     t.0                             1
    x.102     obj1                         0.54
    x.102     w.1                             1
    x.102     r.2                             1
    x.102     t.0                             1
    x.103     obj1                         2.52
    x.103     w.1                             1
    x.103     r.3                             1
    x.103     t.0                             1
    x.104     obj1                          1.5
    x.104     w.1                             1
    x.104     r.4                             1
    x.104     t.0                             1
    x.105     obj1                         0.12
    x.105     w.1                             1
    x.105     r.5                             1
    x.105     t.0                             1
    x.106     obj1                         0.12
    x.106     w.1                             1
    x.106     r.6                             1
    x.106     t.0                             1
    x.107     obj1                         0.72
    x.107     w.1                             1
    x.107     r.7                             1
    x.107     t.0                             1
    x.200     obj1                         1.68
    x.200     w.2                             1
    x.200     r.0                             1
    x.200     t.0                             1
    x.201     obj1                         2.88
    x.201     w.2                             1
    x.201     r.1                             1
    x.201     t.0                             1
    x.202     obj1                          1.8
    x.202     w.2                             1
    x.202     r.2                             1
    x.202     t.0                             1
    x.203     obj1                         0.42
    x.203     w.2                             1
    x.203     r.3                             1
    x.203     t.0                             1
    x.204     obj1                         2.04
    x.204     w.2                             1
    x.204     r.4                             1
    x.204     t.0                             1
    x.205     obj1                         1.14
    x.205     w.2                             1
    x.205     r.5                             1
    x.205     t.0                             1
    x.206     obj1                         1.26
    x.206     w.2                             1
    x.206     r.6                             1
    x.206     t.0                             1
    x.207     obj1                         1.98
    x.207     w.2                             1
    x.207     r.7                             1
    x.207     t.0                             1
    x.010     obj1                          0.9
    x.010     w.0                             1
    x.010     r.0                             1
    x.010     t.1                             1
    x.011     obj1                          2.7
    x.011     w.0                             1
    x.011     r.1                             1
    x.011     t.1                             1
    x.012     obj1                         2.97
    x.012     w.0                             1
    x.012     r.2                             1
    x.012     t.1                             1
    x.013     obj1                          1.8
    x.013     w.0                             1
    x.013     r.3                             1
    x.013     t.1                             1
    x.014     obj1                         3.51
    x.014     w.0                             1
    x.014     r.4                             1
    x.014     t.1                             1
    x.015     obj1                         1.89
    x.015     w.0                             1
    x.015     r.5                             1
    x.015     t.1                             1
    x.016     obj1                          0.9
    x.016     w.0                             1
    x.016     r.6                             1
    x.016     t.1                             1
    x.017     obj1                         2.79
    x.017     w.0                             1
    x.017     r.7                             1
    x.017     t.1                             1
    x.110     obj1                         4.05
    x.110     w.1                             1
    x.110     r.0                             1
    x.110     t.1                             1
    x.111     obj1                         2.25
    x.111     w.1                             1
    x.111     r.1                             1
    x.111     t.1                             1
    x.112     obj1                         3.87
    x.112     w.1                             1
    x.112     r.2                             1
    x.112     t.1                             1
    x.113     obj1                         3.06
    x.113     w.1                             1
    x.113     r.3                             1
    x.113     t.1                             1
    x.114     obj1                         0.18
    x.114     w.1                             1
    x.114     r.4                             1
    x.114     t.1                             1
    x.115     obj1                         0.99
    x.115     w.1                             1
    x.115     r.5                             1
    x.115     t.1                             1
    x.116     obj1                         4.14
    x.116     w.1                             1
    x.116     r.6                             1
    x.116     t.1                             1
    x.117     obj1                         0.54
    x.117     w.1                             1
    x.117     r.7                             1
    x.117     t.1                             1
    x.210     obj1                         1.62
    x.210     w.2                             1
    x.210     r.0                             1
    x.210     t.1                             1
    x.211     obj1                         0.63
    x.211     w.2                             1
    x.211     r.1                             1
    x.211     t.1                             1
    x.212     obj1                         2.07
    x.212     w.2                             1
    x.212     r.2                             1
    x.212     t.1                             1
    x.213     obj1                         4.14
    x.213     w.2                             1
    x.213     r.3                             1
    x.213     t.1                             1
    x.214     obj1                         3.24
    x.214     w.2                             1
    x.214     r.4                             1
    x.214     t.1                             1
    x.215     obj1                          2.7
    x.215     w.2                             1
    x.215     r.5                             1
    x.215     t.1                             1
    x.216     obj1                         2.88
    x.216     w.2                             1
    x.216     r.6                             1
    x.216     t.1                             1
    x.217     obj1                         2.43
    x.217     w.2                             1
    x.217     r.7                             1
    x.217     t.1                             1
    x.020     obj1                       207.92
    x.020     w.0                             1
    x.020     r.0                             1
    x.020     t.2                             1
    x.021     obj1                       262.16
    x.021     w.0                             1
    x.021     r.1                             1
    x.021     t.2                             1
    x.022     obj1                          452
    x.022     w.0                             1
    x.022     r.2                             1
    x.022     t.2                             1
    x.023     obj1                       370.64
    x.023     w.0                             1
    x.023     r.3                             1
    x.023     t.2                             1
    x.024     obj1                        361.6
    x.024     w.0                             1
    x.024     r.4                             1
    x.024     t.2                             1
    x.025     obj1                       433.92
    x.025     w.0                             1
    x.025     r.5                             1
    x.025     t.2                             1
    x.026     obj1                       153.68
    x.026     w.0                             1
    x.026     r.6                             1
    x.026     t.2                             1
    x.027     obj1                       235.04
    x.027     w.0                             1
    x.027     r.7                             1
    x.027     t.2                             1
    x.120     obj1                       307.36
    x.120     w.1                             1
    x.120     r.0                             1
    x.120     t.2                             1
    x.121     obj1                       244.08
    x.121     w.1                             1
    x.121     r.1                             1
    x.121     t.2                             1
    x.122     obj1                        271.2
    x.122     w.1                             1
    x.122     r.2                             1
    x.122     t.2                             1
    x.123     obj1                       298.32
    x.123     w.1                             1
    x.123     r.3                             1
    x.123     t.2                             1
    x.124     obj1                        72.32
    x.124     w.1                             1
    x.124     r.4                             1
    x.124     t.2                             1
    x.125     obj1                       108.48
    x.125     w.1                             1
    x.125     r.5                             1
    x.125     t.2                             1
    x.126     obj1                        36.16
    x.126     w.1                             1
    x.126     r.6                             1
    x.126     t.2                             1
    x.127     obj1                        99.44
    x.127     w.1                             1
    x.127     r.7                             1
    x.127     t.2                             1
    x.220     obj1                       253.12
    x.220     w.2                             1
    x.220     r.0                             1
    x.220     t.2                             1
    x.221     obj1                       262.16
    x.221     w.2                             1
    x.221     r.1                             1
    x.221     t.2                             1
    x.222     obj1                       379.68
    x.222     w.2                             1
    x.222     r.2                             1
    x.222     t.2                             1
    x.223     obj1                       253.12
    x.223     w.2                             1
    x.223     r.3                             1
    x.223     t.2                             1
    x.224     obj1                        27.12
    x.224     w.2                             1
    x.224     r.4                             1
    x.224     t.2                             1
    x.225     obj1                       442.96
    x.225     w.2                             1
    x.225     r.5                             1
    x.225     t.2                             1
    x.226     obj1                       343.52
    x.226     w.2                             1
    x.226     r.6                             1
    x.226     t.2                             1
    x.227     obj1                       162.72
    x.227     w.2                             1
    x.227     r.7                             1
    x.227     t.2                             1
    y.0       obj1                            6
    y.0       t.0                             1
    y.1       obj1                            9
    y.1       t.1                             1
    y.2       obj1                          904
    y.2       t.2                             1
RHS
    rhs       t.0                             1
    rhs       t.1                             1
    rhs       t.2                             1
RANGES
    rng       w.0                             1
    rng       w.1                             1
    rng       w.2                             1
    rng       r.0                             8
    rng       r.1                             8
    rng       r.2                             8
    rng       r.3                             8
    rng       r.4                             8
    rng       r.5                             8
    rng       r.6                             8
    rng       r.7                             8
BOUNDS
 UP bnd       x.000                           1
 UP bnd       x.001                           1
 UP bnd       x.002                           1
 UP bnd       x.003                           1
 UP bnd       x.004                           1
 UP bnd       x.005                           1
 UP bnd       x.006                           1
 UP bnd       x.007                           1
 UP bnd       x.100                           1
 UP bnd       x.101                           1
 UP bnd       x.102                           1
 UP bnd       x.103                           1
 UP bnd       x.104                           1
 UP bnd       x.105                           1
 UP bnd       x.106                           1
 UP bnd       x.107                           1
 UP bnd       x.200                           1
 UP bnd       x.201                           1
 UP bnd       x.202                           1
 UP bnd       x.203                           1
 UP bnd       x.204                           1
 UP bnd       x.205                           1
 UP bnd       x.206                           1
 UP bnd       x.207                           1
 UP bnd       x.010                           1
 UP bnd       x.011                           1
 UP bnd       x.012                           1
 UP bnd       x.013                           1
 UP bnd       x.014                           1
 UP bnd       x.015                           1
 UP bnd       x.016                           1
 UP bnd       x.017                           1
 UP bnd       x.110                           1
 UP bnd       x.111                           1
 UP bnd       x.112                           1
 UP bnd       x.113                           1
 UP bnd       x.114                           1
 UP bnd       x.115                           1
 UP bnd       x.116                           1
 UP bnd       x.117                           1
 UP bnd       x.210                           1
 UP bnd       x.211                           1
 UP bnd       x.212                           1
 UP bnd       x.213                           1
 UP bnd       x.214                           1
 UP bnd       x.215                           1
 UP bnd       x.216                           1
 UP bnd       x.217                           1
 UP bnd       x.020                           1
 UP bnd       x.021                           1
 UP bnd       x.022                           1
 UP bnd       x.023                           1
 UP bnd       x.024                           1
 UP bnd       x.025                           1
 UP bnd       x.026                           1
 UP bnd       x.027                           1
 UP bnd       x.120                           1
 UP bnd       x.121                           1
 UP bnd       x.122                           1
 UP bnd       x.123                           1
 UP bnd       x.124                           1
 UP bnd       x.125                           1
 UP bnd       x.126                           1
 UP bnd       x.127                           1
 UP bnd       x.220                           1
 UP bnd       x.221                           1
 UP bnd       x.222                           1
 UP bnd       x.223                           1
 UP bnd       x.224                           1
 UP bnd       x.225                           1
 UP bnd       x.226                           1
 UP bnd       x.227                           1
 UP bnd       y.0                             1
 UP bnd       y.1                             1
 UP bnd       y.2                             1
ENDATA
